StudentsNr = 10;
InstructorsNr = 19;
DaysNr = 1;
SlotsPerDay = 20;
AvailabilitySlotsLenght = 20;
RoomNr = 1;
ProgrammNr = 1;
DegreeNr = 2;
RolesNr = 4;
CoursesNr = 1;
InstructorsProgramm = [{1}, {1}, {1}, {1}, {1}, {1}, {1}, {1}, {1}, {1}, {1}, {1}, {1}, {1}, {1}, {1}, {1}, {1}, {1}];
InstructorRolesPerProgramm = [|{1, 3, 4, 5, 8, 10, 11, 13, 14, 15, 17}, {4, 6, 10, 14, 16, 17, 18}, {3, 4, 8, 11, 12, 14, 16, 19}, {1, 4, 5, 9, 10, 11, 12, 15, 17, 18}|];
InstructorsAvailability = [|1, |1, |1, |1, |1, |1, |0, |1, |1, |1, |1, |1, |0, |0, |1, |1, |1, |0, |0|];
StudentsProgramm = [1, 1, 1, 1, 1, 1, 1, 1, 1, 1];
StudentsDegree = [2, 1, 2, 2, 2, 2, 1, 2, 2, 1];
StudentsSupervisorId = [10, 5, 4, 5, 2, 15, 6, 19, 10, 10];
StudentsCourseIds = [{1}, {}, {1}, {1}, {1}, {1}, {}, {1}, {1}, {}];
StudentsAvailability = [|1, |0, |1, |0, |0, |1, |1, |0, |1, |0|];
TheoryticalMinCard = [0, 0, 0, 0, 1, 0, 0, 0, 0, 0];
CoursesInstructorIds = [{3, 4, 5, 6, 7, 8, 13, 16, 18, 19}];
RolesDemands = [9, 5, 5, 4];
RolesContinuity = [1, 2, 4];
ExamLen = [2, 1, 2, 2, 2, 2, 1, 2, 2, 1];
LunchTsMinLen = 0;
LunchStarts = [7..14];
SupervisorAvailable = 5;
OptimalLunchLenght = [0, 0];
OptimalStartTs = [0, 0];
OptimalFinishTs = [1, 20];
MinimizeRooms = 300;
RolesSoftContinuity = [|1, 2, 3, 4|0, 4, 3, 3|];
SameDegreeInRoom = 10;
Mergeability = 0;
